VER
4

OBJSENSE
MIN

VAR
8 1
F 8

CON
106 4
SVECQRE 91
SVECQE 8
SVECPSD 6
L= 1

OBJACOORD
2
0 1.0
1 1.0

ACOORD
38
0 0 1.0
1 2 1.0
7 3 1.0
10 4 1.0
22 5 1.0
25 6 1.0
28 7 1.0
46 2 1.0
48 2 1.0
51 2 1.0
52 3 1.0
55 4 1.0
57 3 1.0
60 4 1.0
63 3 1.0
66 4 1.0
67 5 1.0
70 6 1.0
73 7 1.0
75 5 1.0
78 6 1.0
81 7 1.0
84 5 1.0
87 6 1.0
90 7 1.0
91 1 1.0
93 2 1.0
93 4 1.0
93 7 1.0
99 2 1.0
100 3 1.0
101 4 1.0
102 5 1.0
103 6 1.0
104 7 1.0
105 2 1.0
105 4 1.0
105 7 1.0

BCOORD
2
92 -1.0
105 1.0
